p td 140 79
1 106
1 125
3 13
3 44
4 8
5 93
6 98
7 38
8 12
8 99
9 83
10 56
11 44
13 15
15 131
16 35
16 65
19 136
20 36
21 27
21 130
22 127
24 124
24 128
25 76
25 123
26 30
26 40
26 106
26 139
27 31
27 80
28 72
28 132
29 64
33 61
33 67
35 138
36 99
37 117
40 96
42 63
42 79
45 87
46 126
49 85
54 86
54 129
55 115
57 111
58 126
60 84
61 126
64 75
65 97
68 118
70 84
70 123
70 138
71 95
71 113
76 78
76 93
77 78
77 109
77 135
80 101
82 85
83 88
83 91
84 135
86 134
89 96
93 121
93 134
112 130
119 131
124 133
127 137
